Reading data file... Done.
GA evolving, please wait until finished...
Initial population:
 [[0, 13.0, 10.0, 1.0, 5.0, 11.0, 1.0, 6.0, 1.0, 20.0, 1.0, 12.0, 3.0, 15.0, 1.0, 18.0, 1.0, 17.0, 7.0, 1.0, 22.0, 2.0, 16.0, 1.0, 4.0, 21.0, 1.0, 8.0, 14.0, 9.0, 1.0, 19.0, 1059.0], [0, 6.0, 7.0, 10.0, 1.0, 11.0, 22.0, 19.0, 1.0, 20.0, 1.0, 17.0, 1.0, 5.0, 16.0, 1.0, 4.0, 3.0, 9.0, 2.0, 1.0, 18.0, 12.0, 1.0, 13.0, 14.0, 15.0, 1.0, 21.0, 8.0, 872.0], [0, 4.0, 2.0, 1.0, 12.0, 3.0, 1.0, 14.0, 1.0, 6.0, 22.0, 1.0, 10.0, 21.0, 1.0, 13.0, 7.0, 18.0, 1.0, 8.0, 5.0, 11.0, 1.0, 20.0, 1.0, 16.0, 15.0, 19.0, 9.0, 1.0, 17.0, 957.0], [0, 21.0, 3.0, 1.0, 4.0, 2.0, 11.0, 1.0, 13.0, 22.0, 1.0, 17.0, 1.0, 12.0, 1.0, 20.0, 7.0, 1.0, 19.0, 15.0, 8.0, 10.0, 9.0, 1.0, 18.0, 5.0, 1.0, 6.0, 16.0, 1.0, 14.0, 934.0], [0, 6.0, 1.0, 20.0, 9.0, 1.0, 10.0, 17.0, 1.0, 14.0, 4.0, 1.0, 2.0, 8.0, 1.0, 21.0, 12.0, 1.0, 5.0, 22.0, 1.0, 13.0, 19.0, 7.0, 1.0, 16.0, 3.0, 11.0, 15.0, 1.0, 18.0, 1014.0], [0, 15.0, 7.0, 2.0, 9.0, 16.0, 1.0, 20.0, 1.0, 17.0, 3.0, 1.0, 10.0, 12.0, 11.0, 1.0, 6.0, 1.0, 21.0, 1.0, 5.0, 8.0, 1.0, 14.0, 13.0, 1.0, 19.0, 18.0, 4.0, 1.0, 22.0, 944.0], [0, 4.0, 14.0, 1.0, 5.0, 3.0, 7.0, 1.0, 18.0, 13.0, 9.0, 1.0, 19.0, 1.0, 20.0, 15.0, 1.0, 11.0, 21.0, 1.0, 22.0, 12.0, 2.0, 1.0, 6.0, 10.0, 1.0, 17.0, 8.0, 1.0, 16.0, 909.0], [0, 6.0, 1.0, 14.0, 18.0, 1.0, 5.0, 1.0, 20.0, 1.0, 21.0, 9.0, 22.0, 15.0, 1.0, 3.0, 19.0, 16.0, 7.0, 1.0, 12.0, 11.0, 4.0, 1.0, 17.0, 1.0, 2.0, 13.0, 1.0, 8.0, 10.0, 972.0], [0, 20.0, 1.0, 11.0, 2.0, 9.0, 1.0, 17.0, 1.0, 5.0, 10.0, 8.0, 1.0, 16.0, 4.0, 22.0, 1.0, 12.0, 1.0, 6.0, 1.0, 14.0, 19.0, 3.0, 1.0, 18.0, 21.0, 1.0, 7.0, 15.0, 13.0, 933.0], [0, 15.0, 20.0, 1.0, 18.0, 2.0, 10.0, 1.0, 5.0, 12.0, 1.0, 22.0, 17.0, 9.0, 1.0, 16.0, 11.0, 8.0, 1.0, 21.0, 1.0, 13.0, 1.0, 6.0, 1.0, 14.0, 7.0, 3.0, 1.0, 19.0, 4.0, 931.0], [0, 3.0, 17.0, 1.0, 21.0, 1.0, 13.0, 10.0, 19.0, 1.0, 4.0, 2.0, 7.0, 1.0, 16.0, 9.0, 15.0, 1.0, 6.0, 1.0, 5.0, 8.0, 1.0, 14.0, 12.0, 1.0, 20.0, 1.0, 11.0, 18.0, 22.0, 896.0], [0, 9.0, 18.0, 1.0, 17.0, 10.0, 1.0, 16.0, 19.0, 11.0, 1.0, 12.0, 7.0, 1.0, 20.0, 1.0, 3.0, 6.0, 1.0, 14.0, 2.0, 15.0, 1.0, 8.0, 22.0, 5.0, 1.0, 13.0, 1.0, 21.0, 4.0, 1010.0], [0, 20.0, 1.0, 2.0, 11.0, 12.0, 1.0, 19.0, 17.0, 1.0, 21.0, 15.0, 1.0, 18.0, 22.0, 10.0, 1.0, 13.0, 8.0, 1.0, 14.0, 1.0, 6.0, 3.0, 1.0, 4.0, 7.0, 5.0, 1.0, 16.0, 9.0, 839.0], [0, 10.0, 2.0, 8.0, 1.0, 13.0, 1.0, 6.0, 9.0, 1.0, 14.0, 4.0, 1.0, 5.0, 3.0, 1.0, 20.0, 1.0, 17.0, 15.0, 1.0, 22.0, 18.0, 7.0, 19.0, 1.0, 12.0, 16.0, 11.0, 1.0, 21.0, 883.0], [0, 17.0, 9.0, 11.0, 1.0, 8.0, 18.0, 16.0, 1.0, 5.0, 15.0, 1.0, 20.0, 1.0, 22.0, 19.0, 2.0, 1.0, 14.0, 7.0, 13.0, 1.0, 6.0, 4.0, 1.0, 21.0, 12.0, 1.0, 3.0, 10.0, 950.0], [0, 4.0, 6.0, 1.0, 10.0, 7.0, 9.0, 5.0, 1.0, 17.0, 1.0, 14.0, 2.0, 15.0, 1.0, 16.0, 13.0, 1.0, 21.0, 22.0, 1.0, 20.0, 1.0, 18.0, 3.0, 19.0, 1.0, 12.0, 8.0, 11.0, 849.0], [0, 7.0, 10.0, 2.0, 1.0, 21.0, 1.0, 6.0, 8.0, 1.0, 18.0, 16.0, 1.0, 5.0, 15.0, 19.0, 1.0, 20.0, 1.0, 14.0, 22.0, 9.0, 11.0, 1.0, 13.0, 3.0, 4.0, 1.0, 12.0, 1.0, 17.0, 861.0], [0, 21.0, 3.0, 1.0, 13.0, 5.0, 1.0, 22.0, 14.0, 1.0, 2.0, 19.0, 11.0, 1.0, 16.0, 12.0, 15.0, 9.0, 1.0, 20.0, 7.0, 1.0, 18.0, 1.0, 6.0, 8.0, 1.0, 4.0, 17.0, 1.0, 10.0, 1059.0], [0, 6.0, 1.0, 18.0, 8.0, 1.0, 20.0, 1.0, 12.0, 21.0, 1.0, 22.0, 9.0, 15.0, 1.0, 17.0, 1.0, 2.0, 4.0, 1.0, 5.0, 19.0, 7.0, 1.0, 16.0, 13.0, 1.0, 14.0, 3.0, 10.0, 1.0, 11.0, 1010.0], [0, 18.0, 3.0, 1.0, 17.0, 1.0, 21.0, 4.0, 1.0, 13.0, 11.0, 16.0, 1.0, 2.0, 7.0, 1.0, 20.0, 1.0, 8.0, 9.0, 22.0, 12.0, 1.0, 14.0, 10.0, 1.0, 6.0, 19.0, 1.0, 15.0, 5.0, 1024.0], [0, 12.0, 8.0, 11.0, 9.0, 1.0, 21.0, 4.0, 1.0, 19.0, 14.0, 22.0, 1.0, 15.0, 6.0, 1.0, 20.0, 1.0, 5.0, 7.0, 3.0, 1.0, 16.0, 10.0, 1.0, 17.0, 1.0, 18.0, 13.0, 1.0, 2.0, 922.0], [0, 19.0, 14.0, 1.0, 13.0, 10.0, 1.0, 20.0, 1.0, 17.0, 16.0, 1.0, 4.0, 22.0, 8.0, 1.0, 2.0, 21.0, 1.0, 3.0, 12.0, 1.0, 5.0, 11.0, 15.0, 1.0, 6.0, 7.0, 9.0, 1.0, 18.0, 974.0], [0, 18.0, 22.0, 16.0, 1.0, 10.0, 8.0, 9.0, 7.0, 12.0, 1.0, 4.0, 6.0, 1.0, 20.0, 1.0, 5.0, 14.0, 15.0, 1.0, 21.0, 1.0, 13.0, 11.0, 2.0, 1.0, 19.0, 3.0, 1.0, 17.0, 816.0], [0, 19.0, 11.0, 3.0, 1.0, 12.0, 2.0, 15.0, 1.0, 8.0, 10.0, 1.0, 6.0, 1.0, 20.0, 1.0, 13.0, 9.0, 16.0, 1.0, 21.0, 1.0, 5.0, 7.0, 18.0, 1.0, 17.0, 1.0, 14.0, 22.0, 4.0, 956.0], [0, 12.0, 8.0, 3.0, 1.0, 21.0, 19.0, 1.0, 20.0, 1.0, 6.0, 16.0, 1.0, 9.0, 15.0, 18.0, 22.0, 7.0, 1.0, 17.0, 1.0, 2.0, 4.0, 1.0, 5.0, 11.0, 1.0, 14.0, 10.0, 1.0, 13.0, 861.0], [0, 3.0, 17.0, 1.0, 16.0, 6.0, 1.0, 9.0, 10.0, 14.0, 2.0, 1.0, 4.0, 7.0, 22.0, 1.0, 13.0, 11.0, 1.0, 5.0, 18.0, 1.0, 19.0, 8.0, 1.0, 21.0, 12.0, 1.0, 20.0, 15.0, 1009.0], [0, 22.0, 5.0, 1.0, 6.0, 10.0, 1.0, 11.0, 14.0, 18.0, 1.0, 15.0, 16.0, 12.0, 1.0, 4.0, 17.0, 1.0, 2.0, 8.0, 19.0, 1.0, 20.0, 1.0, 3.0, 9.0, 13.0, 7.0, 1.0, 21.0, 948.0], [0, 17.0, 4.0, 1.0, 21.0, 2.0, 1.0, 7.0, 5.0, 12.0, 1.0, 14.0, 22.0, 9.0, 1.0, 13.0, 1.0, 20.0, 1.0, 3.0, 19.0, 8.0, 15.0, 1.0, 10.0, 6.0, 1.0, 16.0, 11.0, 18.0, 965.0], [0, 3.0, 9.0, 4.0, 7.0, 1.0, 12.0, 1.0, 17.0, 1.0, 21.0, 1.0, 6.0, 15.0, 1.0, 8.0, 19.0, 22.0, 1.0, 13.0, 5.0, 1.0, 18.0, 10.0, 2.0, 1.0, 20.0, 1.0, 14.0, 11.0, 16.0, 899.0], [0, 4.0, 5.0, 1.0, 2.0, 14.0, 9.0, 10.0, 1.0, 21.0, 8.0, 1.0, 3.0, 17.0, 1.0, 11.0, 16.0, 22.0, 1.0, 6.0, 15.0, 1.0, 13.0, 7.0, 18.0, 1.0, 20.0, 1.0, 19.0, 12.0, 989.0], [0, 21.0, 2.0, 1.0, 5.0, 16.0, 11.0, 1.0, 20.0, 1.0, 19.0, 7.0, 12.0, 1.0, 18.0, 1.0, 6.0, 1.0, 13.0, 8.0, 22.0, 1.0, 4.0, 9.0, 17.0, 1.0, 15.0, 10.0, 3.0, 14.0, 990.0], [0, 7.0, 16.0, 1.0, 20.0, 1.0, 19.0, 6.0, 1.0, 11.0, 21.0, 1.0, 4.0, 10.0, 5.0, 1.0, 3.0, 12.0, 2.0, 1.0, 22.0, 13.0, 1.0, 14.0, 15.0, 9.0, 18.0, 1.0, 8.0, 17.0, 1010.0], [0, 5.0, 2.0, 1.0, 4.0, 14.0, 1.0, 17.0, 1.0, 6.0, 16.0, 1.0, 21.0, 9.0, 1.0, 12.0, 1.0, 20.0, 7.0, 1.0, 13.0, 8.0, 10.0, 1.0, 18.0, 11.0, 3.0, 1.0, 19.0, 15.0, 22.0, 932.0], [0, 2.0, 10.0, 18.0, 15.0, 9.0, 1.0, 6.0, 22.0, 1.0, 19.0, 12.0, 1.0, 5.0, 3.0, 1.0, 20.0, 1.0, 21.0, 11.0, 1.0, 17.0, 7.0, 1.0, 14.0, 13.0, 1.0, 4.0, 8.0, 16.0, 983.0], [0, 21.0, 15.0, 1.0, 13.0, 2.0, 1.0, 17.0, 3.0, 1.0, 11.0, 4.0, 22.0, 8.0, 1.0, 18.0, 16.0, 1.0, 12.0, 1.0, 6.0, 19.0, 1.0, 20.0, 7.0, 1.0, 5.0, 14.0, 9.0, 1.0, 10.0, 1039.0], [0, 16.0, 17.0, 1.0, 6.0, 10.0, 1.0, 3.0, 2.0, 7.0, 22.0, 1.0, 8.0, 4.0, 18.0, 1.0, 21.0, 19.0, 15.0, 1.0, 5.0, 11.0, 9.0, 1.0, 20.0, 1.0, 14.0, 12.0, 1.0, 13.0, 768.0], [0, 2.0, 5.0, 1.0, 14.0, 8.0, 1.0, 12.0, 13.0, 7.0, 1.0, 4.0, 17.0, 1.0, 19.0, 16.0, 10.0, 1.0, 18.0, 21.0, 1.0, 3.0, 22.0, 11.0, 1.0, 20.0, 1.0, 6.0, 9.0, 15.0, 944.0], [0, 14.0, 16.0, 15.0, 1.0, 22.0, 6.0, 1.0, 4.0, 19.0, 12.0, 1.0, 7.0, 8.0, 10.0, 3.0, 1.0, 17.0, 9.0, 1.0, 21.0, 1.0, 13.0, 18.0, 11.0, 1.0, 5.0, 1.0, 20.0, 1.0, 2.0, 996.0], [0, 8.0, 16.0, 9.0, 7.0, 1.0, 13.0, 2.0, 1.0, 20.0, 1.0, 22.0, 19.0, 15.0, 3.0, 1.0, 18.0, 1.0, 17.0, 10.0, 1.0, 11.0, 21.0, 1.0, 12.0, 1.0, 6.0, 1.0, 14.0, 5.0, 1.0, 4.0, 1013.0], [0, 11.0, 19.0, 5.0, 1.0, 12.0, 2.0, 7.0, 1.0, 18.0, 14.0, 10.0, 1.0, 22.0, 17.0, 1.0, 6.0, 1.0, 13.0, 1.0, 20.0, 15.0, 1.0, 3.0, 16.0, 4.0, 1.0, 21.0, 8.0, 9.0, 959.0], [0, 22.0, 17.0, 1.0, 21.0, 19.0, 1.0, 3.0, 2.0, 1.0, 14.0, 5.0, 1.0, 20.0, 1.0, 18.0, 1.0, 6.0, 1.0, 12.0, 15.0, 11.0, 8.0, 9.0, 1.0, 7.0, 13.0, 10.0, 1.0, 16.0, 4.0, 886.0], [0, 15.0, 13.0, 2.0, 1.0, 16.0, 22.0, 1.0, 6.0, 1.0, 21.0, 11.0, 1.0, 18.0, 19.0, 1.0, 17.0, 3.0, 1.0, 5.0, 4.0, 10.0, 9.0, 1.0, 20.0, 1.0, 14.0, 7.0, 12.0, 1.0, 8.0, 910.0], [0, 3.0, 2.0, 4.0, 1.0, 13.0, 14.0, 1.0, 10.0, 22.0, 1.0, 17.0, 15.0, 1.0, 6.0, 1.0, 12.0, 9.0, 18.0, 1.0, 21.0, 11.0, 1.0, 16.0, 8.0, 19.0, 1.0, 5.0, 7.0, 1.0, 20.0, 882.0], [0, 16.0, 22.0, 5.0, 1.0, 9.0, 3.0, 12.0, 1.0, 13.0, 1.0, 20.0, 1.0, 17.0, 1.0, 6.0, 10.0, 1.0, 11.0, 4.0, 1.0, 21.0, 8.0, 1.0, 14.0, 2.0, 1.0, 19.0, 7.0, 15.0, 18.0, 953.0], [0, 14.0, 7.0, 22.0, 11.0, 1.0, 10.0, 3.0, 19.0, 1.0, 2.0, 12.0, 9.0, 1.0, 18.0, 15.0, 13.0, 1.0, 16.0, 5.0, 1.0, 17.0, 1.0, 20.0, 1.0, 6.0, 1.0, 21.0, 8.0, 1.0, 4.0, 1002.0], [0, 22.0, 6.0, 1.0, 7.0, 8.0, 4.0, 1.0, 20.0, 10.0, 1.0, 18.0, 21.0, 1.0, 15.0, 12.0, 19.0, 11.0, 1.0, 17.0, 3.0, 1.0, 13.0, 9.0, 2.0, 1.0, 14.0, 16.0, 1.0, 5.0, 974.0], [0, 6.0, 3.0, 1.0, 8.0, 11.0, 9.0, 5.0, 1.0, 10.0, 19.0, 1.0, 20.0, 1.0, 17.0, 1.0, 18.0, 7.0, 2.0, 1.0, 12.0, 16.0, 1.0, 21.0, 1.0, 14.0, 22.0, 1.0, 13.0, 4.0, 15.0, 887.0], [0, 18.0, 1.0, 20.0, 15.0, 1.0, 2.0, 22.0, 1.0, 13.0, 14.0, 1.0, 11.0, 6.0, 1.0, 21.0, 12.0, 1.0, 9.0, 19.0, 8.0, 4.0, 1.0, 16.0, 17.0, 1.0, 5.0, 3.0, 10.0, 7.0, 911.0], [0, 9.0, 17.0, 1.0, 16.0, 5.0, 1.0, 6.0, 1.0, 2.0, 7.0, 19.0, 1.0, 20.0, 10.0, 1.0, 18.0, 21.0, 1.0, 13.0, 11.0, 1.0, 14.0, 15.0, 8.0, 1.0, 3.0, 4.0, 12.0, 1.0, 22.0, 933.0], [0, 6.0, 1.0, 17.0, 1.0, 14.0, 4.0, 16.0, 1.0, 22.0, 2.0, 9.0, 11.0, 1.0, 18.0, 5.0, 10.0, 1.0, 12.0, 8.0, 1.0, 13.0, 15.0, 1.0, 20.0, 1.0, 21.0, 7.0, 1.0, 19.0, 3.0, 999.0], [0, 10.0, 15.0, 19.0, 1.0, 20.0, 1.0, 11.0, 9.0, 8.0, 1.0, 21.0, 1.0, 14.0, 22.0, 1.0, 17.0, 1.0, 6.0, 3.0, 1.0, 16.0, 2.0, 4.0, 1.0, 7.0, 18.0, 13.0, 1.0, 5.0, 12.0, 867.0], [0, 21.0, 16.0, 1.0, 18.0, 3.0, 4.0, 15.0, 1.0, 20.0, 1.0, 22.0, 8.0, 13.0, 1.0, 7.0, 19.0, 10.0, 1.0, 6.0, 1.0, 2.0, 11.0, 12.0, 1.0, 17.0, 9.0, 1.0, 5.0, 14.0, 968.0], [0, 9.0, 22.0, 2.0, 1.0, 14.0, 11.0, 1.0, 6.0, 1.0, 20.0, 15.0, 1.0, 19.0, 21.0, 1.0, 18.0, 8.0, 12.0, 1.0, 4.0, 10.0, 13.0, 1.0, 3.0, 5.0, 1.0, 17.0, 16.0, 1.0, 7.0, 960.0], [0, 14.0, 3.0, 1.0, 17.0, 19.0, 1.0, 11.0, 12.0, 7.0, 1.0, 13.0, 9.0, 1.0, 20.0, 10.0, 1.0, 21.0, 15.0, 8.0, 1.0, 5.0, 18.0, 1.0, 4.0, 22.0, 2.0, 1.0, 16.0, 6.0, 1047.0], [0, 20.0, 1.0, 3.0, 7.0, 11.0, 13.0, 1.0, 8.0, 14.0, 15.0, 1.0, 6.0, 9.0, 1.0, 12.0, 4.0, 1.0, 17.0, 22.0, 1.0, 10.0, 21.0, 1.0, 2.0, 18.0, 19.0, 1.0, 5.0, 16.0, 906.0], [0, 14.0, 15.0, 5.0, 1.0, 4.0, 19.0, 1.0, 17.0, 1.0, 12.0, 16.0, 3.0, 1.0, 22.0, 8.0, 7.0, 1.0, 6.0, 11.0, 9.0, 1.0, 10.0, 18.0, 13.0, 1.0, 2.0, 21.0, 1.0, 20.0, 1020.0], [0, 15.0, 16.0, 9.0, 10.0, 12.0, 1.0, 5.0, 7.0, 19.0, 1.0, 14.0, 1.0, 21.0, 2.0, 1.0, 11.0, 17.0, 1.0, 13.0, 1.0, 20.0, 1.0, 18.0, 4.0, 8.0, 1.0, 22.0, 3.0, 1.0, 6.0, 1003.0], [0, 22.0, 12.0, 15.0, 1.0, 16.0, 14.0, 1.0, 18.0, 13.0, 1.0, 19.0, 4.0, 1.0, 20.0, 1.0, 11.0, 8.0, 7.0, 1.0, 6.0, 10.0, 1.0, 5.0, 3.0, 1.0, 17.0, 1.0, 21.0, 9.0, 2.0, 915.0], [0, 10.0, 5.0, 22.0, 1.0, 16.0, 8.0, 1.0, 21.0, 7.0, 1.0, 6.0, 3.0, 1.0, 17.0, 1.0, 14.0, 12.0, 1.0, 20.0, 1.0, 2.0, 9.0, 4.0, 15.0, 1.0, 18.0, 19.0, 1.0, 13.0, 11.0, 883.0], [0, 3.0, 15.0, 1.0, 17.0, 11.0, 1.0, 22.0, 2.0, 1.0, 14.0, 16.0, 10.0, 9.0, 1.0, 7.0, 8.0, 1.0, 20.0, 1.0, 5.0, 1.0, 6.0, 1.0, 13.0, 12.0, 1.0, 19.0, 4.0, 18.0, 1.0, 21.0, 1064.0], [0, 9.0, 13.0, 1.0, 17.0, 1.0, 20.0, 1.0, 18.0, 15.0, 16.0, 1.0, 12.0, 2.0, 1.0, 14.0, 10.0, 4.0, 1.0, 3.0, 11.0, 1.0, 21.0, 8.0, 1.0, 5.0, 7.0, 19.0, 1.0, 6.0, 22.0, 967.0], [0, 10.0, 3.0, 12.0, 1.0, 14.0, 7.0, 8.0, 1.0, 22.0, 9.0, 2.0, 1.0, 5.0, 4.0, 1.0, 13.0, 1.0, 20.0, 1.0, 21.0, 1.0, 6.0, 11.0, 1.0, 16.0, 19.0, 15.0, 1.0, 18.0, 1.0, 17.0, 823.0], [0, 8.0, 12.0, 10.0, 1.0, 6.0, 7.0, 1.0, 5.0, 22.0, 1.0, 17.0, 3.0, 1.0, 14.0, 1.0, 21.0, 11.0, 1.0, 18.0, 9.0, 19.0, 1.0, 2.0, 1.0, 20.0, 1.0, 4.0, 15.0, 16.0, 1.0, 13.0, 1064.0], [0, 5.0, 1.0, 17.0, 3.0, 1.0, 21.0, 12.0, 1.0, 13.0, 16.0, 1.0, 20.0, 1.0, 14.0, 11.0, 15.0, 1.0, 18.0, 2.0, 7.0, 9.0, 1.0, 10.0, 19.0, 8.0, 4.0, 1.0, 22.0, 6.0, 963.0], [0, 19.0, 14.0, 22.0, 1.0, 4.0, 2.0, 15.0, 1.0, 13.0, 18.0, 1.0, 16.0, 1.0, 20.0, 1.0, 3.0, 12.0, 1.0, 6.0, 9.0, 7.0, 1.0, 21.0, 1.0, 5.0, 11.0, 10.0, 1.0, 8.0, 17.0, 898.0], [0, 10.0, 17.0, 1.0, 3.0, 12.0, 11.0, 1.0, 18.0, 19.0, 1.0, 14.0, 1.0, 21.0, 22.0, 1.0, 4.0, 9.0, 1.0, 20.0, 1.0, 2.0, 5.0, 1.0, 13.0, 16.0, 8.0, 1.0, 15.0, 6.0, 7.0, 834.0], [0, 9.0, 19.0, 8.0, 15.0, 1.0, 20.0, 1.0, 17.0, 11.0, 1.0, 22.0, 16.0, 4.0, 7.0, 1.0, 18.0, 14.0, 1.0, 12.0, 10.0, 3.0, 1.0, 21.0, 2.0, 1.0, 13.0, 1.0, 6.0, 1.0, 5.0, 995.0], [0, 4.0, 7.0, 19.0, 1.0, 12.0, 16.0, 1.0, 5.0, 15.0, 9.0, 2.0, 1.0, 13.0, 11.0, 8.0, 1.0, 22.0, 6.0, 1.0, 14.0, 1.0, 17.0, 1.0, 20.0, 1.0, 18.0, 21.0, 1.0, 10.0, 3.0, 922.0], [0, 11.0, 8.0, 15.0, 1.0, 6.0, 1.0, 5.0, 9.0, 19.0, 1.0, 4.0, 14.0, 1.0, 12.0, 16.0, 1.0, 21.0, 10.0, 1.0, 13.0, 18.0, 1.0, 17.0, 3.0, 1.0, 7.0, 22.0, 1.0, 20.0, 1.0, 2.0, 1051.0], [0, 5.0, 1.0, 6.0, 15.0, 11.0, 1.0, 20.0, 1.0, 2.0, 12.0, 1.0, 13.0, 18.0, 7.0, 1.0, 4.0, 22.0, 8.0, 1.0, 14.0, 10.0, 1.0, 17.0, 9.0, 1.0, 16.0, 19.0, 3.0, 1.0, 21.0, 1074.0], [0, 12.0, 13.0, 7.0, 1.0, 5.0, 9.0, 1.0, 21.0, 1.0, 17.0, 11.0, 1.0, 20.0, 1.0, 4.0, 3.0, 18.0, 15.0, 1.0, 10.0, 2.0, 8.0, 1.0, 19.0, 14.0, 1.0, 6.0, 22.0, 1.0, 16.0, 922.0], [0, 20.0, 1.0, 2.0, 16.0, 3.0, 1.0, 7.0, 21.0, 10.0, 1.0, 4.0, 5.0, 8.0, 1.0, 22.0, 17.0, 1.0, 15.0, 9.0, 19.0, 14.0, 1.0, 11.0, 12.0, 1.0, 13.0, 1.0, 6.0, 1.0, 18.0, 966.0], [0, 7.0, 22.0, 8.0, 1.0, 21.0, 10.0, 1.0, 12.0, 4.0, 1.0, 20.0, 1.0, 13.0, 3.0, 15.0, 9.0, 1.0, 6.0, 11.0, 1.0, 19.0, 2.0, 16.0, 1.0, 17.0, 1.0, 5.0, 18.0, 1.0, 14.0, 1047.0], [0, 10.0, 13.0, 3.0, 7.0, 1.0, 12.0, 2.0, 1.0, 21.0, 1.0, 20.0, 1.0, 16.0, 11.0, 8.0, 22.0, 1.0, 5.0, 1.0, 6.0, 1.0, 17.0, 15.0, 1.0, 19.0, 14.0, 9.0, 1.0, 18.0, 4.0, 971.0], [0, 12.0, 8.0, 22.0, 1.0, 2.0, 19.0, 3.0, 1.0, 11.0, 15.0, 4.0, 13.0, 1.0, 14.0, 1.0, 20.0, 1.0, 18.0, 1.0, 6.0, 1.0, 17.0, 7.0, 1.0, 21.0, 1.0, 5.0, 9.0, 16.0, 10.0, 1050.0], [0, 13.0, 10.0, 1.0, 21.0, 4.0, 15.0, 1.0, 6.0, 7.0, 1.0, 17.0, 22.0, 1.0, 12.0, 11.0, 18.0, 1.0, 20.0, 9.0, 1.0, 16.0, 3.0, 19.0, 1.0, 8.0, 14.0, 1.0, 2.0, 5.0, 960.0], [0, 14.0, 13.0, 1.0, 17.0, 10.0, 1.0, 4.0, 1.0, 20.0, 1.0, 11.0, 16.0, 12.0, 1.0, 3.0, 21.0, 1.0, 6.0, 19.0, 1.0, 8.0, 7.0, 2.0, 22.0, 1.0, 15.0, 5.0, 9.0, 18.0, 988.0], [0, 18.0, 1.0, 20.0, 1.0, 19.0, 14.0, 1.0, 13.0, 10.0, 9.0, 11.0, 1.0, 6.0, 4.0, 1.0, 21.0, 1.0, 5.0, 22.0, 3.0, 1.0, 17.0, 16.0, 1.0, 15.0, 12.0, 7.0, 2.0, 1.0, 8.0, 930.0], [0, 8.0, 18.0, 12.0, 1.0, 17.0, 4.0, 1.0, 14.0, 10.0, 11.0, 1.0, 21.0, 1.0, 6.0, 1.0, 13.0, 1.0, 20.0, 1.0, 5.0, 3.0, 16.0, 1.0, 22.0, 15.0, 7.0, 9.0, 2.0, 1.0, 19.0, 946.0], [0, 14.0, 19.0, 22.0, 1.0, 10.0, 18.0, 4.0, 1.0, 21.0, 7.0, 1.0, 2.0, 1.0, 20.0, 1.0, 17.0, 1.0, 6.0, 1.0, 13.0, 8.0, 1.0, 5.0, 16.0, 11.0, 1.0, 15.0, 9.0, 3.0, 12.0, 1019.0], [0, 3.0, 14.0, 18.0, 1.0, 5.0, 4.0, 11.0, 1.0, 16.0, 6.0, 1.0, 15.0, 10.0, 1.0, 20.0, 1.0, 8.0, 19.0, 12.0, 1.0, 17.0, 22.0, 9.0, 1.0, 21.0, 1.0, 13.0, 7.0, 2.0, 913.0], [0, 14.0, 1.0, 20.0, 1.0, 21.0, 9.0, 11.0, 1.0, 12.0, 2.0, 7.0, 1.0, 18.0, 3.0, 10.0, 15.0, 1.0, 19.0, 13.0, 22.0, 1.0, 16.0, 4.0, 1.0, 6.0, 8.0, 1.0, 5.0, 1.0, 17.0, 898.0], [0, 15.0, 3.0, 7.0, 22.0, 1.0, 5.0, 10.0, 4.0, 1.0, 20.0, 1.0, 8.0, 6.0, 9.0, 1.0, 19.0, 11.0, 13.0, 1.0, 21.0, 16.0, 1.0, 18.0, 1.0, 17.0, 1.0, 2.0, 14.0, 1.0, 12.0, 889.0], [0, 2.0, 3.0, 19.0, 1.0, 11.0, 16.0, 18.0, 1.0, 6.0, 8.0, 1.0, 7.0, 4.0, 13.0, 1.0, 5.0, 1.0, 17.0, 1.0, 12.0, 10.0, 9.0, 1.0, 20.0, 15.0, 1.0, 21.0, 1.0, 14.0, 22.0, 840.0], [0, 2.0, 18.0, 3.0, 1.0, 7.0, 6.0, 15.0, 1.0, 14.0, 9.0, 5.0, 1.0, 22.0, 4.0, 1.0, 17.0, 1.0, 21.0, 19.0, 1.0, 20.0, 1.0, 16.0, 10.0, 11.0, 8.0, 1.0, 12.0, 13.0, 919.0], [0, 16.0, 3.0, 2.0, 1.0, 6.0, 15.0, 1.0, 21.0, 1.0, 17.0, 19.0, 1.0, 10.0, 22.0, 4.0, 1.0, 20.0, 1.0, 11.0, 13.0, 9.0, 1.0, 12.0, 14.0, 1.0, 8.0, 7.0, 5.0, 1.0, 18.0, 902.0], [0, 20.0, 1.0, 16.0, 19.0, 1.0, 5.0, 18.0, 11.0, 1.0, 3.0, 17.0, 9.0, 1.0, 6.0, 1.0, 21.0, 1.0, 13.0, 2.0, 7.0, 1.0, 14.0, 22.0, 1.0, 12.0, 8.0, 15.0, 10.0, 1.0, 4.0, 1018.0], [0, 4.0, 5.0, 10.0, 1.0, 8.0, 18.0, 1.0, 21.0, 7.0, 9.0, 1.0, 19.0, 17.0, 1.0, 3.0, 1.0, 20.0, 1.0, 22.0, 14.0, 11.0, 1.0, 2.0, 1.0, 6.0, 1.0, 12.0, 13.0, 1.0, 16.0, 15.0, 957.0], [0, 3.0, 2.0, 1.0, 14.0, 4.0, 9.0, 10.0, 1.0, 12.0, 18.0, 1.0, 20.0, 15.0, 1.0, 21.0, 1.0, 13.0, 7.0, 1.0, 5.0, 8.0, 1.0, 17.0, 19.0, 1.0, 16.0, 6.0, 1.0, 22.0, 11.0, 886.0], [0, 2.0, 16.0, 8.0, 1.0, 20.0, 1.0, 18.0, 12.0, 22.0, 1.0, 10.0, 15.0, 19.0, 9.0, 1.0, 14.0, 1.0, 17.0, 1.0, 6.0, 1.0, 5.0, 11.0, 3.0, 1.0, 4.0, 21.0, 1.0, 13.0, 7.0, 1034.0], [0, 12.0, 4.0, 1.0, 6.0, 1.0, 20.0, 1.0, 22.0, 3.0, 15.0, 13.0, 1.0, 14.0, 8.0, 11.0, 1.0, 21.0, 18.0, 1.0, 5.0, 19.0, 7.0, 9.0, 1.0, 10.0, 2.0, 1.0, 17.0, 16.0, 933.0], [0, 14.0, 9.0, 4.0, 1.0, 16.0, 17.0, 1.0, 5.0, 3.0, 1.0, 2.0, 1.0, 20.0, 7.0, 1.0, 11.0, 22.0, 10.0, 12.0, 1.0, 21.0, 15.0, 1.0, 13.0, 1.0, 6.0, 1.0, 18.0, 8.0, 19.0, 994.0], [0, 15.0, 20.0, 1.0, 17.0, 16.0, 1.0, 9.0, 12.0, 13.0, 1.0, 3.0, 11.0, 4.0, 10.0, 1.0, 21.0, 1.0, 14.0, 19.0, 7.0, 1.0, 5.0, 22.0, 1.0, 2.0, 18.0, 8.0, 1.0, 6.0, 1001.0], [0, 5.0, 22.0, 8.0, 1.0, 3.0, 9.0, 7.0, 16.0, 1.0, 17.0, 15.0, 1.0, 20.0, 1.0, 14.0, 11.0, 1.0, 6.0, 19.0, 1.0, 4.0, 21.0, 1.0, 18.0, 10.0, 2.0, 1.0, 13.0, 12.0, 975.0], [0, 13.0, 18.0, 10.0, 1.0, 20.0, 1.0, 22.0, 11.0, 15.0, 5.0, 1.0, 14.0, 1.0, 17.0, 1.0, 2.0, 7.0, 19.0, 1.0, 3.0, 4.0, 8.0, 1.0, 21.0, 12.0, 1.0, 6.0, 16.0, 1.0, 9.0, 970.0], [0, 16.0, 19.0, 8.0, 1.0, 12.0, 11.0, 10.0, 1.0, 13.0, 3.0, 1.0, 21.0, 15.0, 22.0, 1.0, 17.0, 7.0, 1.0, 2.0, 5.0, 1.0, 6.0, 1.0, 18.0, 9.0, 14.0, 1.0, 20.0, 1.0, 4.0, 952.0], [0, 10.0, 18.0, 1.0, 21.0, 1.0, 17.0, 1.0, 5.0, 12.0, 1.0, 14.0, 7.0, 8.0, 1.0, 19.0, 22.0, 9.0, 1.0, 6.0, 16.0, 1.0, 3.0, 13.0, 1.0, 20.0, 1.0, 11.0, 4.0, 2.0, 15.0, 893.0], [0, 18.0, 11.0, 4.0, 1.0, 20.0, 15.0, 1.0, 19.0, 17.0, 1.0, 9.0, 10.0, 21.0, 7.0, 1.0, 22.0, 2.0, 8.0, 1.0, 14.0, 16.0, 1.0, 12.0, 3.0, 1.0, 5.0, 1.0, 6.0, 1.0, 13.0, 985.0], [0, 15.0, 17.0, 9.0, 1.0, 18.0, 16.0, 22.0, 1.0, 3.0, 7.0, 1.0, 6.0, 1.0, 5.0, 14.0, 1.0, 21.0, 12.0, 1.0, 20.0, 1.0, 13.0, 2.0, 1.0, 19.0, 8.0, 10.0, 4.0, 1.0, 11.0, 927.0], [0, 20.0, 1.0, 13.0, 22.0, 1.0, 12.0, 4.0, 1.0, 21.0, 10.0, 15.0, 1.0, 2.0, 3.0, 9.0, 8.0, 1.0, 18.0, 11.0, 16.0, 1.0, 17.0, 1.0, 14.0, 7.0, 1.0, 6.0, 19.0, 1.0, 5.0, 909.0]]
Solution by GA:
 [0.0, 8.0, 6.0, 1.0, 2.0, 9.0, 0.0, 3.0, 4.0, 10.0, 0.0, 13.0, 11.0, 0.0, 16.0, 0.0, 5.0, 7.0, 0.0, 15.0, 18.0, 21.0, 14.0, 0.0, 12.0, 0.0, 20.0, 17.0, 0.0, 19.0]
Cost: 597.0
Solved at Generation: 17
Final population:
 [[17, 8.0, 6.0, 1.0, 2.0, 9.0, 0.0, 3.0, 4.0, 10.0, 0.0, 13.0, 11.0, 0.0, 16.0, 0.0, 5.0, 7.0, 0.0, 15.0, 18.0, 21.0, 14.0, 0.0, 12.0, 0.0, 20.0, 17.0, 0.0, 19.0, 597.0], [17, 8.0, 6.0, 1.0, 2.0, 9.0, 0.0, 3.0, 4.0, 10.0, 0.0, 19.0, 0.0, 13.0, 11.0, 0.0, 5.0, 7.0, 0.0, 15.0, 20.0, 0.0, 18.0, 17.0, 21.0, 14.0, 0.0, 12.0, 0.0, 16.0, 607.0], [18, 8.0, 6.0, 1.0, 2.0, 9.0, 0.0, 3.0, 4.0, 10.0, 0.0, 19.0, 0.0, 13.0, 11.0, 0.0, 5.0, 7.0, 0.0, 15.0, 20.0, 0.0, 17.0, 18.0, 21.0, 14.0, 0.0, 16.0, 0.0, 12.0, 613.0], [17, 8.0, 6.0, 1.0, 2.0, 9.0, 0.0, 3.0, 4.0, 10.0, 0.0, 13.0, 11.0, 0.0, 5.0, 7.0, 0.0, 15.0, 20.0, 0.0, 17.0, 18.0, 21.0, 14.0, 0.0, 16.0, 0.0, 19.0, 0.0, 12.0, 613.0], [17, 8.0, 5.0, 7.0, 0.0, 9.0, 1.0, 2.0, 6.0, 0.0, 10.0, 3.0, 4.0, 0.0, 13.0, 11.0, 0.0, 19.0, 14.0, 0.0, 12.0, 15.0, 0.0, 18.0, 20.0, 0.0, 16.0, 0.0, 17.0, 21.0, 614.0], [17, 8.0, 5.0, 7.0, 0.0, 9.0, 1.0, 2.0, 6.0, 0.0, 19.0, 0.0, 3.0, 4.0, 10.0, 0.0, 11.0, 13.0, 0.0, 17.0, 21.0, 14.0, 0.0, 12.0, 15.0, 0.0, 20.0, 18.0, 0.0, 16.0, 614.0], [18, 8.0, 6.0, 1.0, 2.0, 9.0, 0.0, 4.0, 3.0, 10.0, 0.0, 13.0, 11.0, 0.0, 15.0, 14.0, 12.0, 0.0, 20.0, 18.0, 0.0, 7.0, 5.0, 0.0, 16.0, 0.0, 19.0, 0.0, 17.0, 21.0, 618.0], [17, 8.0, 6.0, 1.0, 2.0, 9.0, 0.0, 4.0, 3.0, 10.0, 0.0, 13.0, 11.0, 0.0, 15.0, 14.0, 12.0, 0.0, 20.0, 18.0, 0.0, 7.0, 5.0, 0.0, 16.0, 0.0, 19.0, 0.0, 17.0, 21.0, 618.0], [17, 8.0, 5.0, 7.0, 0.0, 9.0, 6.0, 1.0, 2.0, 0.0, 10.0, 3.0, 4.0, 0.0, 11.0, 13.0, 0.0, 17.0, 21.0, 0.0, 19.0, 14.0, 0.0, 12.0, 15.0, 0.0, 20.0, 18.0, 0.0, 16.0, 620.0], [18, 8.0, 6.0, 1.0, 7.0, 9.0, 0.0, 5.0, 2.0, 0.0, 13.0, 11.0, 0.0, 17.0, 21.0, 14.0, 0.0, 16.0, 0.0, 20.0, 18.0, 0.0, 4.0, 3.0, 10.0, 0.0, 12.0, 15.0, 0.0, 19.0, 622.0], [18, 8.0, 6.0, 1.0, 7.0, 9.0, 0.0, 5.0, 2.0, 0.0, 10.0, 3.0, 4.0, 0.0, 13.0, 11.0, 0.0, 19.0, 14.0, 0.0, 12.0, 15.0, 0.0, 18.0, 20.0, 0.0, 16.0, 0.0, 17.0, 21.0, 623.0], [17, 8.0, 5.0, 7.0, 0.0, 9.0, 2.0, 1.0, 6.0, 0.0, 10.0, 3.0, 4.0, 0.0, 17.0, 21.0, 11.0, 0.0, 13.0, 0.0, 19.0, 14.0, 0.0, 12.0, 15.0, 0.0, 20.0, 18.0, 0.0, 16.0, 623.0], [18, 8.0, 6.0, 1.0, 2.0, 9.0, 0.0, 3.0, 4.0, 10.0, 0.0, 13.0, 12.0, 0.0, 18.0, 20.0, 0.0, 7.0, 5.0, 0.0, 11.0, 0.0, 19.0, 0.0, 16.0, 14.0, 0.0, 17.0, 21.0, 15.0, 625.0], [17, 8.0, 6.0, 1.0, 2.0, 9.0, 0.0, 3.0, 4.0, 10.0, 0.0, 13.0, 12.0, 0.0, 18.0, 20.0, 0.0, 5.0, 7.0, 0.0, 17.0, 21.0, 15.0, 0.0, 11.0, 0.0, 16.0, 14.0, 0.0, 19.0, 625.0], [17, 8.0, 6.0, 1.0, 2.0, 9.0, 0.0, 16.0, 0.0, 4.0, 3.0, 10.0, 0.0, 13.0, 11.0, 0.0, 19.0, 0.0, 5.0, 7.0, 0.0, 15.0, 20.0, 14.0, 0.0, 12.0, 18.0, 0.0, 17.0, 21.0, 625.0], [17, 8.0, 6.0, 1.0, 2.0, 9.0, 0.0, 4.0, 3.0, 10.0, 0.0, 13.0, 11.0, 0.0, 15.0, 12.0, 0.0, 20.0, 18.0, 0.0, 7.0, 5.0, 0.0, 16.0, 0.0, 19.0, 0.0, 17.0, 14.0, 21.0, 627.0], [18, 8.0, 5.0, 7.0, 0.0, 9.0, 1.0, 2.0, 6.0, 0.0, 3.0, 4.0, 10.0, 0.0, 13.0, 11.0, 0.0, 16.0, 0.0, 12.0, 15.0, 0.0, 20.0, 0.0, 19.0, 0.0, 18.0, 21.0, 17.0, 14.0, 627.0], [18, 8.0, 6.0, 1.0, 2.0, 9.0, 0.0, 13.0, 0.0, 5.0, 7.0, 0.0, 14.0, 19.0, 0.0, 17.0, 21.0, 11.0, 0.0, 12.0, 0.0, 20.0, 18.0, 0.0, 4.0, 3.0, 10.0, 0.0, 15.0, 16.0, 627.0], [18, 8.0, 6.0, 1.0, 2.0, 9.0, 0.0, 3.0, 4.0, 10.0, 0.0, 13.0, 11.0, 0.0, 18.0, 20.0, 0.0, 12.0, 0.0, 5.0, 7.0, 0.0, 19.0, 0.0, 16.0, 21.0, 0.0, 14.0, 15.0, 17.0, 627.0], [17, 8.0, 6.0, 1.0, 2.0, 9.0, 0.0, 13.0, 0.0, 5.0, 7.0, 0.0, 14.0, 19.0, 0.0, 17.0, 21.0, 11.0, 0.0, 12.0, 0.0, 20.0, 18.0, 0.0, 4.0, 3.0, 10.0, 0.0, 15.0, 16.0, 627.0], [18, 8.0, 5.0, 7.0, 0.0, 9.0, 1.0, 2.0, 6.0, 0.0, 3.0, 4.0, 10.0, 0.0, 13.0, 17.0, 21.0, 0.0, 19.0, 14.0, 0.0, 12.0, 15.0, 0.0, 18.0, 20.0, 0.0, 11.0, 0.0, 16.0, 627.0], [17, 8.0, 6.0, 1.0, 7.0, 9.0, 0.0, 11.0, 0.0, 5.0, 2.0, 0.0, 10.0, 3.0, 4.0, 0.0, 17.0, 21.0, 13.0, 0.0, 19.0, 14.0, 0.0, 12.0, 15.0, 0.0, 20.0, 18.0, 0.0, 16.0, 629.0], [18, 8.0, 6.0, 1.0, 2.0, 9.0, 0.0, 3.0, 4.0, 10.0, 0.0, 13.0, 14.0, 11.0, 0.0, 15.0, 12.0, 0.0, 5.0, 7.0, 0.0, 20.0, 18.0, 0.0, 16.0, 0.0, 17.0, 21.0, 0.0, 19.0, 630.0], [18, 8.0, 6.0, 1.0, 7.0, 9.0, 0.0, 2.0, 5.0, 0.0, 10.0, 4.0, 3.0, 0.0, 17.0, 21.0, 13.0, 0.0, 19.0, 0.0, 12.0, 15.0, 0.0, 20.0, 18.0, 14.0, 0.0, 11.0, 0.0, 16.0, 630.0], [17, 8.0, 6.0, 1.0, 7.0, 9.0, 0.0, 5.0, 10.0, 0.0, 2.0, 3.0, 4.0, 0.0, 20.0, 18.0, 0.0, 13.0, 11.0, 0.0, 19.0, 14.0, 0.0, 12.0, 15.0, 0.0, 16.0, 0.0, 17.0, 21.0, 631.0], [18, 8.0, 6.0, 1.0, 7.0, 9.0, 0.0, 5.0, 10.0, 0.0, 2.0, 3.0, 4.0, 0.0, 13.0, 11.0, 0.0, 19.0, 14.0, 0.0, 12.0, 15.0, 0.0, 18.0, 20.0, 0.0, 16.0, 0.0, 17.0, 21.0, 631.0], [17, 8.0, 5.0, 7.0, 0.0, 9.0, 1.0, 2.0, 6.0, 0.0, 3.0, 4.0, 10.0, 0.0, 13.0, 11.0, 0.0, 19.0, 0.0, 18.0, 17.0, 21.0, 0.0, 15.0, 12.0, 0.0, 20.0, 0.0, 16.0, 14.0, 631.0], [18, 8.0, 6.0, 1.0, 7.0, 9.0, 0.0, 16.0, 0.0, 5.0, 2.0, 0.0, 14.0, 12.0, 0.0, 19.0, 0.0, 17.0, 21.0, 15.0, 0.0, 11.0, 13.0, 0.0, 20.0, 18.0, 0.0, 4.0, 3.0, 10.0, 632.0], [17, 8.0, 6.0, 1.0, 7.0, 9.0, 0.0, 16.0, 0.0, 5.0, 2.0, 0.0, 14.0, 12.0, 0.0, 19.0, 0.0, 17.0, 21.0, 15.0, 0.0, 11.0, 13.0, 0.0, 20.0, 18.0, 0.0, 4.0, 3.0, 10.0, 632.0], [17, 8.0, 6.0, 1.0, 2.0, 9.0, 0.0, 3.0, 4.0, 10.0, 0.0, 13.0, 11.0, 0.0, 5.0, 7.0, 0.0, 12.0, 0.0, 16.0, 0.0, 20.0, 15.0, 0.0, 18.0, 21.0, 14.0, 17.0, 0.0, 19.0, 633.0], [18, 11.0, 8.0, 0.0, 5.0, 7.0, 0.0, 9.0, 6.0, 1.0, 2.0, 0.0, 10.0, 3.0, 4.0, 0.0, 17.0, 21.0, 13.0, 0.0, 16.0, 0.0, 19.0, 14.0, 0.0, 12.0, 15.0, 0.0, 18.0, 20.0, 634.0], [18, 8.0, 6.0, 1.0, 2.0, 10.0, 0.0, 7.0, 3.0, 4.0, 0.0, 13.0, 14.0, 12.0, 0.0, 11.0, 0.0, 5.0, 9.0, 0.0, 15.0, 18.0, 17.0, 0.0, 16.0, 0.0, 20.0, 21.0, 0.0, 19.0, 634.0], [18, 8.0, 11.0, 0.0, 5.0, 7.0, 0.0, 9.0, 1.0, 2.0, 6.0, 0.0, 3.0, 4.0, 10.0, 0.0, 13.0, 17.0, 21.0, 0.0, 19.0, 14.0, 0.0, 12.0, 15.0, 0.0, 18.0, 20.0, 0.0, 16.0, 635.0], [17, 8.0, 6.0, 1.0, 2.0, 9.0, 0.0, 3.0, 4.0, 10.0, 0.0, 13.0, 11.0, 0.0, 18.0, 15.0, 0.0, 20.0, 0.0, 12.0, 0.0, 5.0, 7.0, 0.0, 19.0, 0.0, 16.0, 14.0, 0.0, 21.0, 17.0, 636.0], [17, 8.0, 5.0, 7.0, 0.0, 9.0, 1.0, 2.0, 6.0, 0.0, 3.0, 4.0, 10.0, 0.0, 13.0, 11.0, 0.0, 19.0, 0.0, 12.0, 15.0, 0.0, 20.0, 18.0, 0.0, 21.0, 16.0, 0.0, 17.0, 14.0, 636.0], [17, 8.0, 5.0, 7.0, 0.0, 9.0, 1.0, 2.0, 6.0, 0.0, 4.0, 3.0, 10.0, 0.0, 13.0, 11.0, 0.0, 19.0, 14.0, 0.0, 12.0, 15.0, 0.0, 18.0, 20.0, 0.0, 16.0, 21.0, 0.0, 17.0, 636.0], [18, 7.0, 5.0, 0.0, 6.0, 1.0, 2.0, 8.0, 0.0, 3.0, 4.0, 10.0, 0.0, 13.0, 11.0, 0.0, 18.0, 20.0, 0.0, 12.0, 15.0, 9.0, 0.0, 16.0, 14.0, 0.0, 17.0, 21.0, 0.0, 19.0, 636.0], [17, 8.0, 6.0, 1.0, 2.0, 9.0, 0.0, 3.0, 4.0, 10.0, 0.0, 17.0, 18.0, 21.0, 0.0, 12.0, 13.0, 0.0, 5.0, 7.0, 0.0, 19.0, 14.0, 0.0, 15.0, 20.0, 0.0, 11.0, 0.0, 16.0, 636.0], [18, 8.0, 5.0, 7.0, 0.0, 21.0, 16.0, 0.0, 9.0, 1.0, 2.0, 6.0, 0.0, 4.0, 3.0, 10.0, 0.0, 13.0, 11.0, 0.0, 19.0, 14.0, 0.0, 12.0, 15.0, 0.0, 18.0, 20.0, 0.0, 17.0, 636.0], [18, 8.0, 6.0, 1.0, 2.0, 9.0, 0.0, 3.0, 4.0, 10.0, 0.0, 17.0, 18.0, 21.0, 0.0, 12.0, 13.0, 0.0, 5.0, 7.0, 0.0, 19.0, 14.0, 0.0, 15.0, 20.0, 0.0, 11.0, 0.0, 16.0, 636.0], [17, 8.0, 6.0, 1.0, 7.0, 9.0, 0.0, 5.0, 2.0, 0.0, 21.0, 17.0, 13.0, 0.0, 10.0, 4.0, 3.0, 0.0, 19.0, 14.0, 0.0, 12.0, 15.0, 0.0, 18.0, 20.0, 0.0, 11.0, 0.0, 16.0, 636.0], [18, 8.0, 5.0, 7.0, 0.0, 9.0, 1.0, 2.0, 6.0, 0.0, 4.0, 3.0, 10.0, 0.0, 13.0, 11.0, 0.0, 19.0, 14.0, 0.0, 12.0, 15.0, 0.0, 18.0, 20.0, 0.0, 16.0, 21.0, 0.0, 17.0, 636.0], [18, 8.0, 6.0, 1.0, 7.0, 9.0, 0.0, 5.0, 2.0, 0.0, 13.0, 0.0, 19.0, 0.0, 17.0, 21.0, 11.0, 0.0, 14.0, 20.0, 18.0, 0.0, 4.0, 3.0, 10.0, 0.0, 12.0, 15.0, 0.0, 16.0, 637.0], [18, 8.0, 6.0, 1.0, 2.0, 9.0, 0.0, 5.0, 7.0, 0.0, 4.0, 3.0, 0.0, 17.0, 21.0, 13.0, 0.0, 10.0, 0.0, 19.0, 14.0, 0.0, 12.0, 15.0, 0.0, 20.0, 18.0, 0.0, 11.0, 0.0, 16.0, 637.0], [17, 8.0, 6.0, 1.0, 7.0, 9.0, 0.0, 5.0, 2.0, 0.0, 13.0, 0.0, 19.0, 0.0, 17.0, 21.0, 11.0, 0.0, 14.0, 20.0, 18.0, 0.0, 4.0, 3.0, 10.0, 0.0, 12.0, 15.0, 0.0, 16.0, 637.0], [18, 8.0, 6.0, 1.0, 7.0, 9.0, 0.0, 5.0, 2.0, 0.0, 10.0, 3.0, 4.0, 0.0, 17.0, 21.0, 11.0, 0.0, 13.0, 0.0, 19.0, 14.0, 0.0, 12.0, 15.0, 0.0, 20.0, 18.0, 0.0, 16.0, 638.0], [18, 8.0, 6.0, 1.0, 7.0, 9.0, 0.0, 5.0, 2.0, 0.0, 14.0, 19.0, 0.0, 17.0, 21.0, 11.0, 0.0, 13.0, 0.0, 20.0, 18.0, 0.0, 4.0, 3.0, 10.0, 0.0, 12.0, 15.0, 0.0, 16.0, 638.0], [18, 8.0, 5.0, 7.0, 0.0, 9.0, 6.0, 1.0, 2.0, 0.0, 10.0, 3.0, 4.0, 0.0, 11.0, 17.0, 21.0, 0.0, 13.0, 0.0, 19.0, 14.0, 0.0, 12.0, 15.0, 0.0, 18.0, 20.0, 0.0, 16.0, 639.0], [18, 8.0, 6.0, 1.0, 7.0, 9.0, 0.0, 5.0, 2.0, 0.0, 4.0, 3.0, 0.0, 17.0, 21.0, 13.0, 0.0, 16.0, 0.0, 11.0, 10.0, 0.0, 19.0, 0.0, 15.0, 12.0, 0.0, 18.0, 20.0, 14.0, 639.0], [17, 8.0, 6.0, 1.0, 7.0, 9.0, 0.0, 5.0, 2.0, 0.0, 16.0, 14.0, 0.0, 19.0, 0.0, 17.0, 21.0, 11.0, 0.0, 13.0, 0.0, 20.0, 18.0, 0.0, 4.0, 3.0, 10.0, 0.0, 12.0, 15.0, 639.0], [18, 8.0, 5.0, 7.0, 0.0, 9.0, 6.0, 1.0, 2.0, 0.0, 10.0, 3.0, 4.0, 0.0, 11.0, 17.0, 21.0, 0.0, 13.0, 0.0, 19.0, 14.0, 0.0, 12.0, 15.0, 0.0, 20.0, 18.0, 0.0, 16.0, 639.0], [18, 8.0, 6.0, 1.0, 2.0, 9.0, 0.0, 16.0, 0.0, 4.0, 3.0, 10.0, 0.0, 13.0, 11.0, 0.0, 5.0, 7.0, 0.0, 15.0, 20.0, 0.0, 18.0, 21.0, 14.0, 0.0, 12.0, 17.0, 0.0, 19.0, 639.0], [18, 8.0, 6.0, 1.0, 7.0, 9.0, 0.0, 10.0, 5.0, 0.0, 2.0, 4.0, 3.0, 0.0, 17.0, 21.0, 13.0, 0.0, 19.0, 0.0, 12.0, 15.0, 0.0, 20.0, 18.0, 14.0, 0.0, 11.0, 0.0, 16.0, 640.0], [18, 8.0, 6.0, 1.0, 2.0, 9.0, 0.0, 3.0, 4.0, 10.0, 0.0, 13.0, 11.0, 0.0, 5.0, 7.0, 0.0, 15.0, 20.0, 0.0, 18.0, 21.0, 14.0, 0.0, 16.0, 0.0, 12.0, 17.0, 0.0, 19.0, 640.0], [18, 8.0, 6.0, 1.0, 2.0, 9.0, 0.0, 3.0, 4.0, 10.0, 0.0, 13.0, 11.0, 0.0, 16.0, 0.0, 5.0, 7.0, 0.0, 15.0, 20.0, 0.0, 18.0, 21.0, 14.0, 0.0, 12.0, 17.0, 0.0, 19.0, 640.0], [18, 8.0, 6.0, 1.0, 7.0, 9.0, 0.0, 5.0, 10.0, 0.0, 2.0, 4.0, 3.0, 0.0, 17.0, 21.0, 13.0, 0.0, 19.0, 14.0, 0.0, 16.0, 0.0, 12.0, 15.0, 0.0, 18.0, 20.0, 0.0, 11.0, 640.0], [18, 8.0, 6.0, 1.0, 7.0, 9.0, 0.0, 5.0, 2.0, 0.0, 21.0, 17.0, 13.0, 0.0, 10.0, 4.0, 3.0, 0.0, 19.0, 0.0, 20.0, 18.0, 0.0, 12.0, 15.0, 14.0, 0.0, 11.0, 0.0, 16.0, 640.0], [18, 8.0, 6.0, 1.0, 2.0, 9.0, 0.0, 3.0, 4.0, 10.0, 0.0, 13.0, 11.0, 0.0, 5.0, 7.0, 0.0, 16.0, 0.0, 20.0, 15.0, 0.0, 18.0, 21.0, 14.0, 0.0, 12.0, 17.0, 0.0, 19.0, 640.0], [18, 8.0, 5.0, 7.0, 0.0, 9.0, 6.0, 1.0, 2.0, 0.0, 10.0, 3.0, 4.0, 0.0, 17.0, 21.0, 15.0, 0.0, 20.0, 18.0, 14.0, 0.0, 19.0, 0.0, 12.0, 11.0, 0.0, 13.0, 0.0, 16.0, 640.0], [18, 8.0, 6.0, 1.0, 7.0, 9.0, 0.0, 5.0, 10.0, 0.0, 2.0, 4.0, 3.0, 0.0, 17.0, 21.0, 13.0, 0.0, 14.0, 19.0, 0.0, 16.0, 0.0, 12.0, 15.0, 0.0, 18.0, 20.0, 0.0, 11.0, 640.0], [17, 8.0, 6.0, 1.0, 2.0, 9.0, 0.0, 3.0, 4.0, 10.0, 0.0, 13.0, 11.0, 0.0, 5.0, 7.0, 0.0, 16.0, 0.0, 20.0, 15.0, 0.0, 18.0, 21.0, 14.0, 0.0, 12.0, 17.0, 0.0, 19.0, 640.0], [18, 8.0, 6.0, 1.0, 7.0, 9.0, 0.0, 5.0, 10.0, 0.0, 2.0, 4.0, 3.0, 0.0, 17.0, 21.0, 13.0, 0.0, 19.0, 14.0, 0.0, 12.0, 15.0, 0.0, 18.0, 20.0, 0.0, 11.0, 0.0, 16.0, 640.0], [18, 8.0, 6.0, 1.0, 7.0, 9.0, 0.0, 5.0, 10.0, 0.0, 2.0, 4.0, 3.0, 0.0, 17.0, 21.0, 13.0, 0.0, 20.0, 18.0, 14.0, 0.0, 12.0, 15.0, 0.0, 19.0, 0.0, 16.0, 0.0, 11.0, 640.0], [17, 8.0, 6.0, 1.0, 2.0, 9.0, 0.0, 3.0, 4.0, 10.0, 0.0, 13.0, 12.0, 0.0, 18.0, 20.0, 0.0, 7.0, 5.0, 0.0, 11.0, 15.0, 0.0, 16.0, 0.0, 19.0, 0.0, 21.0, 17.0, 14.0, 641.0], [17, 9.0, 8.0, 6.0, 1.0, 2.0, 0.0, 3.0, 4.0, 0.0, 13.0, 11.0, 0.0, 18.0, 20.0, 0.0, 5.0, 7.0, 0.0, 19.0, 0.0, 12.0, 10.0, 0.0, 16.0, 14.0, 0.0, 15.0, 17.0, 21.0, 641.0], [18, 8.0, 6.0, 1.0, 7.0, 9.0, 0.0, 5.0, 2.0, 0.0, 10.0, 3.0, 4.0, 0.0, 11.0, 17.0, 21.0, 0.0, 13.0, 0.0, 19.0, 14.0, 0.0, 12.0, 15.0, 0.0, 20.0, 18.0, 0.0, 16.0, 642.0], [17, 8.0, 6.0, 1.0, 7.0, 9.0, 0.0, 5.0, 2.0, 0.0, 10.0, 3.0, 4.0, 0.0, 11.0, 17.0, 21.0, 0.0, 13.0, 0.0, 19.0, 14.0, 0.0, 12.0, 15.0, 0.0, 20.0, 18.0, 0.0, 16.0, 642.0], [18, 8.0, 6.0, 1.0, 2.0, 9.0, 0.0, 3.0, 4.0, 10.0, 0.0, 13.0, 12.0, 0.0, 18.0, 20.0, 0.0, 7.0, 5.0, 0.0, 11.0, 15.0, 0.0, 19.0, 0.0, 16.0, 14.0, 0.0, 21.0, 17.0, 643.0], [18, 8.0, 6.0, 1.0, 7.0, 9.0, 0.0, 5.0, 2.0, 0.0, 10.0, 4.0, 3.0, 0.0, 13.0, 0.0, 20.0, 18.0, 14.0, 0.0, 12.0, 15.0, 0.0, 19.0, 0.0, 21.0, 17.0, 11.0, 0.0, 16.0, 643.0], [18, 8.0, 6.0, 1.0, 2.0, 9.0, 0.0, 3.0, 4.0, 10.0, 0.0, 13.0, 12.0, 0.0, 18.0, 20.0, 0.0, 5.0, 7.0, 0.0, 11.0, 15.0, 0.0, 16.0, 14.0, 0.0, 17.0, 21.0, 0.0, 19.0, 643.0], [18, 8.0, 6.0, 1.0, 2.0, 9.0, 0.0, 3.0, 4.0, 10.0, 0.0, 13.0, 12.0, 0.0, 18.0, 20.0, 0.0, 7.0, 5.0, 0.0, 11.0, 15.0, 0.0, 16.0, 14.0, 0.0, 17.0, 21.0, 0.0, 19.0, 643.0], [18, 8.0, 6.0, 1.0, 2.0, 10.0, 0.0, 7.0, 3.0, 4.0, 0.0, 13.0, 11.0, 0.0, 5.0, 9.0, 0.0, 15.0, 18.0, 0.0, 16.0, 0.0, 12.0, 17.0, 21.0, 0.0, 14.0, 20.0, 0.0, 19.0, 643.0], [18, 8.0, 6.0, 1.0, 7.0, 9.0, 0.0, 3.0, 4.0, 10.0, 0.0, 13.0, 0.0, 20.0, 18.0, 14.0, 0.0, 12.0, 15.0, 0.0, 5.0, 2.0, 0.0, 19.0, 0.0, 16.0, 0.0, 11.0, 17.0, 21.0, 643.0], [18, 8.0, 6.0, 1.0, 2.0, 14.0, 0.0, 4.0, 3.0, 10.0, 0.0, 13.0, 11.0, 0.0, 15.0, 9.0, 12.0, 0.0, 20.0, 18.0, 0.0, 5.0, 7.0, 0.0, 19.0, 0.0, 16.0, 0.0, 17.0, 21.0, 644.0], [18, 8.0, 6.0, 1.0, 7.0, 9.0, 0.0, 5.0, 2.0, 0.0, 4.0, 3.0, 0.0, 17.0, 21.0, 15.0, 0.0, 20.0, 18.0, 14.0, 0.0, 19.0, 0.0, 12.0, 10.0, 0.0, 11.0, 13.0, 0.0, 16.0, 644.0], [18, 8.0, 6.0, 1.0, 7.0, 9.0, 0.0, 20.0, 18.0, 0.0, 19.0, 0.0, 2.0, 4.0, 3.0, 0.0, 10.0, 5.0, 0.0, 17.0, 21.0, 13.0, 0.0, 14.0, 15.0, 12.0, 0.0, 16.0, 0.0, 11.0, 644.0], [18, 8.0, 6.0, 1.0, 2.0, 14.0, 0.0, 4.0, 3.0, 10.0, 0.0, 13.0, 11.0, 0.0, 15.0, 9.0, 12.0, 0.0, 20.0, 18.0, 0.0, 19.0, 0.0, 7.0, 5.0, 0.0, 16.0, 0.0, 17.0, 21.0, 644.0], [18, 8.0, 6.0, 1.0, 2.0, 14.0, 0.0, 4.0, 3.0, 10.0, 0.0, 13.0, 11.0, 0.0, 15.0, 9.0, 12.0, 0.0, 20.0, 18.0, 0.0, 7.0, 5.0, 0.0, 16.0, 0.0, 19.0, 0.0, 17.0, 21.0, 644.0], [17, 8.0, 6.0, 1.0, 2.0, 14.0, 0.0, 4.0, 3.0, 10.0, 0.0, 13.0, 11.0, 0.0, 15.0, 9.0, 12.0, 0.0, 20.0, 18.0, 0.0, 5.0, 7.0, 0.0, 19.0, 0.0, 16.0, 0.0, 17.0, 21.0, 644.0], [17, 8.0, 6.0, 1.0, 2.0, 0.0, 19.0, 14.0, 0.0, 3.0, 4.0, 10.0, 0.0, 13.0, 17.0, 21.0, 0.0, 5.0, 7.0, 0.0, 15.0, 12.0, 9.0, 0.0, 20.0, 18.0, 0.0, 11.0, 0.0, 16.0, 645.0], [18, 8.0, 6.0, 1.0, 2.0, 9.0, 0.0, 3.0, 4.0, 10.0, 0.0, 13.0, 11.0, 0.0, 18.0, 20.0, 0.0, 5.0, 7.0, 0.0, 19.0, 0.0, 21.0, 14.0, 15.0, 0.0, 12.0, 17.0, 0.0, 16.0, 645.0], [18, 8.0, 6.0, 1.0, 2.0, 14.0, 0.0, 3.0, 4.0, 10.0, 0.0, 13.0, 11.0, 0.0, 15.0, 9.0, 12.0, 0.0, 5.0, 7.0, 0.0, 20.0, 18.0, 0.0, 16.0, 0.0, 19.0, 0.0, 17.0, 21.0, 645.0], [18, 7.0, 5.0, 0.0, 6.0, 1.0, 2.0, 8.0, 0.0, 3.0, 4.0, 10.0, 0.0, 13.0, 11.0, 0.0, 18.0, 20.0, 0.0, 15.0, 9.0, 0.0, 16.0, 14.0, 0.0, 12.0, 17.0, 21.0, 0.0, 19.0, 648.0], [17, 8.0, 6.0, 1.0, 7.0, 9.0, 0.0, 10.0, 5.0, 0.0, 2.0, 3.0, 4.0, 0.0, 17.0, 21.0, 11.0, 0.0, 20.0, 18.0, 0.0, 19.0, 0.0, 12.0, 15.0, 14.0, 0.0, 13.0, 0.0, 16.0, 650.0], [18, 11.0, 8.0, 0.0, 5.0, 7.0, 0.0, 9.0, 1.0, 2.0, 6.0, 0.0, 3.0, 4.0, 10.0, 0.0, 13.0, 0.0, 16.0, 15.0, 0.0, 12.0, 17.0, 21.0, 0.0, 19.0, 0.0, 20.0, 18.0, 14.0, 650.0], [18, 8.0, 5.0, 7.0, 0.0, 9.0, 1.0, 2.0, 6.0, 0.0, 4.0, 3.0, 10.0, 0.0, 13.0, 11.0, 0.0, 19.0, 0.0, 12.0, 21.0, 15.0, 0.0, 20.0, 18.0, 0.0, 16.0, 0.0, 17.0, 14.0, 650.0], [18, 8.0, 6.0, 1.0, 2.0, 9.0, 0.0, 3.0, 4.0, 10.0, 0.0, 13.0, 14.0, 0.0, 20.0, 18.0, 0.0, 16.0, 0.0, 11.0, 15.0, 0.0, 19.0, 0.0, 12.0, 0.0, 5.0, 7.0, 0.0, 17.0, 21.0, 650.0], [18, 8.0, 5.0, 7.0, 0.0, 9.0, 1.0, 2.0, 6.0, 0.0, 3.0, 4.0, 10.0, 0.0, 13.0, 11.0, 0.0, 21.0, 12.0, 15.0, 0.0, 20.0, 18.0, 0.0, 19.0, 0.0, 16.0, 0.0, 17.0, 14.0, 650.0], [18, 8.0, 6.0, 1.0, 7.0, 9.0, 0.0, 5.0, 2.0, 0.0, 14.0, 19.0, 0.0, 17.0, 21.0, 13.0, 0.0, 11.0, 10.0, 15.0, 0.0, 3.0, 4.0, 0.0, 20.0, 18.0, 0.0, 12.0, 0.0, 16.0, 651.0], [18, 8.0, 5.0, 7.0, 0.0, 9.0, 1.0, 2.0, 6.0, 0.0, 4.0, 3.0, 0.0, 17.0, 21.0, 13.0, 0.0, 10.0, 0.0, 19.0, 14.0, 0.0, 12.0, 15.0, 0.0, 18.0, 20.0, 0.0, 16.0, 0.0, 11.0, 651.0], [17, 8.0, 6.0, 1.0, 7.0, 9.0, 0.0, 19.0, 0.0, 5.0, 2.0, 0.0, 10.0, 3.0, 4.0, 0.0, 11.0, 15.0, 14.0, 0.0, 17.0, 21.0, 13.0, 0.0, 12.0, 0.0, 20.0, 18.0, 0.0, 16.0, 652.0], [17, 8.0, 6.0, 1.0, 7.0, 9.0, 0.0, 14.0, 11.0, 0.0, 5.0, 10.0, 0.0, 2.0, 4.0, 3.0, 0.0, 17.0, 21.0, 13.0, 0.0, 16.0, 0.0, 12.0, 15.0, 0.0, 18.0, 20.0, 0.0, 19.0, 652.0], [18, 8.0, 6.0, 1.0, 2.0, 10.0, 0.0, 16.0, 14.0, 0.0, 3.0, 4.0, 0.0, 13.0, 11.0, 0.0, 5.0, 9.0, 0.0, 7.0, 15.0, 0.0, 20.0, 18.0, 0.0, 12.0, 17.0, 21.0, 0.0, 19.0, 653.0], [18, 8.0, 6.0, 1.0, 7.0, 9.0, 0.0, 5.0, 2.0, 0.0, 14.0, 19.0, 0.0, 16.0, 0.0, 17.0, 21.0, 10.0, 0.0, 11.0, 13.0, 0.0, 20.0, 18.0, 0.0, 4.0, 3.0, 0.0, 12.0, 15.0, 654.0], [18, 2.0, 1.0, 7.0, 0.0, 5.0, 6.0, 9.0, 0.0, 3.0, 4.0, 8.0, 10.0, 0.0, 13.0, 11.0, 0.0, 18.0, 20.0, 0.0, 19.0, 0.0, 12.0, 15.0, 14.0, 0.0, 17.0, 0.0, 16.0, 21.0, 655.0], [18, 8.0, 5.0, 7.0, 0.0, 9.0, 6.0, 1.0, 2.0, 0.0, 4.0, 3.0, 10.0, 0.0, 16.0, 0.0, 13.0, 11.0, 0.0, 20.0, 0.0, 19.0, 14.0, 0.0, 12.0, 18.0, 0.0, 15.0, 21.0, 17.0, 655.0], [18, 8.0, 6.0, 1.0, 2.0, 9.0, 0.0, 7.0, 3.0, 4.0, 0.0, 13.0, 14.0, 11.0, 0.0, 12.0, 0.0, 5.0, 10.0, 0.0, 15.0, 20.0, 0.0, 18.0, 21.0, 17.0, 0.0, 16.0, 0.0, 19.0, 655.0], [18, 8.0, 6.0, 2.0, 1.0, 9.0, 0.0, 3.0, 4.0, 10.0, 0.0, 13.0, 14.0, 0.0, 20.0, 18.0, 0.0, 16.0, 0.0, 11.0, 15.0, 0.0, 19.0, 0.0, 12.0, 0.0, 5.0, 7.0, 0.0, 17.0, 21.0, 656.0], [18, 8.0, 6.0, 1.0, 2.0, 0.0, 11.0, 0.0, 19.0, 14.0, 0.0, 3.0, 4.0, 10.0, 0.0, 13.0, 17.0, 21.0, 0.0, 5.0, 9.0, 0.0, 7.0, 15.0, 12.0, 0.0, 20.0, 18.0, 0.0, 16.0, 656.0], [18, 8.0, 6.0, 1.0, 7.0, 9.0, 0.0, 5.0, 2.0, 0.0, 4.0, 3.0, 0.0, 17.0, 21.0, 13.0, 0.0, 10.0, 0.0, 19.0, 0.0, 12.0, 15.0, 0.0, 20.0, 18.0, 14.0, 0.0, 11.0, 0.0, 16.0, 660.0]]
